Route #1: 115 68 131 74 125 145 166 105
Route #2: 59 81 97 172 160 19 77 9
Route #3: 177 99 22 103 4 94 79 89
Route #4: 50 138 108 21 162 110 69 20
Route #5: 15 37 159 80 31 10 129 61
Route #6: 144 48 158 123 28 30 52 53
Route #7: 96 164 91 27 85 43 12 143
Route #8: 153 150 3 90 86 64 141 133
Route #9: 117 93 132 170 62 66 33 45
Route #10: 46 149 181 146
Route #11: 14 78 137 130 39 155 107 60
Route #12: 100 57 101 70 29 120 174 134
Route #13: 73 26 67 82 142 173 161 140
Route #14: 2 17 51 95 147 167 75 47
Route #15: 124 175 49 7 127 121 102 113
Route #16: 154 83 104 126 84 135 8 92
Route #17: 23 42 169 163 176 111 58 32
Route #18: 76 114 5 54 34 152 36 118
Route #19: 40 168 88 148 38 165 16 128
Route #20: 179 157 178 41 151 98 35 119
Route #21: 171 156 139 116 180 25 72 18
Route #22: 56 136 6 106 65 87 63 24
Route #23: 11 44 112 55 122 71 13 109
